p cnf 507 1932
9 43 37 0
11 39 -47 0
28 -6 -21 0
-13 9 38 0
-50 24 -43 0
-43 -44 35 0
21 50 -10 0
-31 -50 26 0
-46 -20 -38 0
-4 -12 -33 0
-3 15 37 0
13 -43 12 0
13 -3 -34 0
-44 22 31 0
6 24 28 0
-36 44 -26 0
38 20 -37 0
-49 45 17 0
8 3 26 0
-1 -5 24 0
35 -29 40 0
-31 -6 -47 0
-15 -13 -4 0
23 -46 -19 0
-46 -45 50 0
-14 4 -5 0
41 -18 -5 0
50 11 -32 0
-39 -16 49 0
35 16 -21 0
-47 44 19 0
-16 -24 31 0
-21 -44 50 0
12 -2 20 0
-23 -19 11 0
-29 -4 -37 0
-43 -6 35 0
15 -22 -27 0
17 10 4 0
39 47 -3 0
3 14 -17 0
-12 -50 18 0
-25 16 -27 0
-29 -20 -18 0
-31 -45 5 0
7 20 -4 0
10 -34 -25 0
-39 -24 45 0
40 -3 45 0
-29 -14 15 0
-1 2 51 0
1 2 -51 0
-1 -2 -51 0
1 -2 51 0
-7 8 52 0
7 8 -52 0
-7 -8 -52 0
7 -8 52 0
10 11 53 0
-10 11 -53 0
10 -11 -53 0
-10 -11 53 0
-12 14 54 0
12 14 -54 0
-12 -14 -54 0
12 -14 54 0
-17 18 55 0
17 18 -55 0
-17 -18 -55 0
17 -18 55 0
19 -20 56 0
-19 -20 -56 0
19 20 -56 0
-19 20 56 0
-21 22 57 0
21 22 -57 0
-21 -22 -57 0
21 -22 57 0
24 -31 58 0
-24 -31 -58 0
24 31 -58 0
-24 31 58 0
-34 35 59 0
34 35 -59 0
-34 -35 -59 0
34 -35 59 0
36 -39 60 0
-36 -39 -60 0
36 39 -60 0
-36 39 60 0
-41 -42 61 0
41 -42 -61 0
-41 42 -61 0
41 42 61 0
-43 -45 62 0
43 -45 -62 0
-43 45 -62 0
43 45 62 0
-46 -47 63 0
46 -47 -63 0
-46 47 -63 0
46 47 63 0
-49 -50 64 0
49 -50 -64 0
-49 50 -64 0
49 50 64 0
51 -52 65 0
-51 -52 -65 0
51 52 -65 0
-51 52 65 0
53 -54 66 0
-53 -54 -66 0
53 54 -66 0
-53 54 66 0
55 -56 67 0
-55 -56 -67 0
55 56 -67 0
-55 56 67 0
57 -58 68 0
-57 -58 -68 0
57 58 -68 0
-57 58 68 0
59 -60 69 0
-59 -60 -69 0
59 60 -69 0
-59 60 69 0
61 -62 70 0
-61 -62 -70 0
61 62 -70 0
-61 62 70 0
63 -64 71 0
-63 -64 -71 0
63 64 -71 0
-63 64 71 0
65 -66 72 0
-65 -66 -72 0
65 66 -72 0
-65 66 72 0
67 -68 73 0
-67 -68 -73 0
67 68 -73 0
-67 68 73 0
69 -70 74 0
-69 -70 -74 0
69 70 -74 0
-69 70 74 0
71 -72 75 0
-71 -72 -75 0
71 72 -75 0
-71 72 75 0
73 -74 76 0
-73 -74 -76 0
73 74 -76 0
-73 74 76 0
75 76 0
-75 -76 0
-5 11 77 0
5 11 -77 0
-5 -11 -77 0
5 -11 77 0
12 -14 78 0
-12 -14 -78 0
12 14 -78 0
-12 14 78 0
18 20 79 0
-18 20 -79 0
18 -20 -79 0
-18 -20 79 0
-23 25 80 0
23 25 -80 0
-23 -25 -80 0
23 -25 80 0
-26 27 81 0
26 27 -81 0
-26 -27 -81 0
26 -27 81 0
30 31 82 0
-30 31 -82 0
30 -31 -82 0
-30 -31 82 0
-32 34 83 0
32 34 -83 0
-32 -34 -83 0
32 -34 83 0
-36 37 84 0
36 37 -84 0
-36 -37 -84 0
36 -37 84 0
-38 39 85 0
38 39 -85 0
-38 -39 -85 0
38 -39 85 0
-40 -41 86 0
40 -41 -86 0
-40 41 -86 0
40 41 86 0
-42 44 87 0
42 44 -87 0
-42 -44 -87 0
42 -44 87 0
-45 46 88 0
45 46 -88 0
-45 -46 -88 0
45 -46 88 0
-48 49 89 0
48 49 -89 0
-48 -49 -89 0
48 -49 89 0
77 -78 90 0
-77 -78 -90 0
77 78 -90 0
-77 78 90 0
79 -80 91 0
-79 -80 -91 0
79 80 -91 0
-79 80 91 0
81 -82 92 0
-81 -82 -92 0
81 82 -92 0
-81 82 92 0
83 -84 93 0
-83 -84 -93 0
83 84 -93 0
-83 84 93 0
85 -86 94 0
-85 -86 -94 0
85 86 -94 0
-85 86 94 0
87 -88 95 0
-87 -88 -95 0
87 88 -95 0
-87 88 95 0
89 -90 96 0
-89 -90 -96 0
89 90 -96 0
-89 90 96 0
91 -92 97 0
-91 -92 -97 0
91 92 -97 0
-91 92 97 0
93 -94 98 0
-93 -94 -98 0
93 94 -98 0
-93 94 98 0
95 -96 99 0
-95 -96 -99 0
95 96 -99 0
-95 96 99 0
97 -98 100 0
-97 -98 -100 0
97 98 -100 0
-97 98 100 0
99 100 0
-99 -100 0
-2 -5 101 0
2 -5 -101 0
-2 5 -101 0
2 5 101 0
7 9 102 0
-7 9 -102 0
7 -9 -102 0
-7 -9 102 0
-10 11 103 0
10 11 -103 0
-10 -11 -103 0
10 -11 103 0
-17 -19 104 0
17 -19 -104 0
-17 19 -104 0
17 19 104 0
-20 -22 105 0
20 -22 -105 0
-20 22 -105 0
20 22 105 0
23 -24 106 0
-23 -24 -106 0
23 24 -106 0
-23 24 106 0
-30 31 107 0
30 31 -107 0
-30 -31 -107 0
30 -31 107 0
33 -34 108 0
-33 -34 -108 0
33 34 -108 0
-33 34 108 0
-36 -39 109 0
36 -39 -109 0
-36 39 -109 0
36 39 109 0
40 -41 110 0
-40 -41 -110 0
40 41 -110 0
-40 41 110 0
43 -45 111 0
-43 -45 -111 0
43 45 -111 0
-43 45 111 0
-48 -50 112 0
48 -50 -112 0
-48 50 -112 0
48 50 112 0
101 -102 113 0
-101 -102 -113 0
101 102 -113 0
-101 102 113 0
103 -104 114 0
-103 -104 -114 0
103 104 -114 0
-103 104 114 0
105 -106 115 0
-105 -106 -115 0
105 106 -115 0
-105 106 115 0
107 -108 116 0
-107 -108 -116 0
107 108 -116 0
-107 108 116 0
109 -110 117 0
-109 -110 -117 0
109 110 -117 0
-109 110 117 0
111 -112 118 0
-111 -112 -118 0
111 112 -118 0
-111 112 118 0
113 -114 119 0
-113 -114 -119 0
113 114 -119 0
-113 114 119 0
115 -116 120 0
-115 -116 -120 0
115 116 -120 0
-115 116 120 0
117 -118 121 0
-117 -118 -121 0
117 118 -121 0
-117 118 121 0
-119 -120 121 0
119 -120 -121 0
-119 120 -121 0
119 120 121 0
1 5 122 0
-1 5 -122 0
1 -5 -122 0
-1 -5 122 0
-7 -13 123 0
7 -13 -123 0
-7 13 -123 0
7 13 123 0
-15 17 124 0
15 17 -124 0
-15 -17 -124 0
15 -17 124 0
18 19 125 0
-18 19 -125 0
18 -19 -125 0
-18 -19 125 0
-20 22 126 0
20 22 -126 0
-20 -22 -126 0
20 -22 126 0
24 -25 127 0
-24 -25 -127 0
24 25 -127 0
-24 25 127 0
-26 -28 128 0
26 -28 -128 0
-26 28 -128 0
26 28 128 0
29 32 129 0
-29 32 -129 0
29 -32 -129 0
-29 -32 129 0
33 37 130 0
-33 37 -130 0
33 -37 -130 0
-33 -37 130 0
-39 41 131 0
39 41 -131 0
-39 -41 -131 0
39 -41 131 0
-42 46 132 0
42 46 -132 0
-42 -46 -132 0
42 -46 132 0
48 -49 133 0
-48 -49 -133 0
48 49 -133 0
-48 49 133 0
121 -122 134 0
-121 -122 -134 0
121 122 -134 0
-121 122 134 0
123 -124 135 0
-123 -124 -135 0
123 124 -135 0
-123 124 135 0
125 -126 136 0
-125 -126 -136 0
125 126 -136 0
-125 126 136 0
127 -128 137 0
-127 -128 -137 0
127 128 -137 0
-127 128 137 0
129 -130 138 0
-129 -130 -138 0
129 130 -138 0
-129 130 138 0
131 -132 139 0
-131 -132 -139 0
131 132 -139 0
-131 132 139 0
133 -134 140 0
-133 -134 -140 0
133 134 -140 0
-133 134 140 0
135 -136 141 0
-135 -136 -141 0
135 136 -141 0
-135 136 141 0
137 -138 142 0
-137 -138 -142 0
137 138 -142 0
-137 138 142 0
139 -140 143 0
-139 -140 -143 0
139 140 -143 0
-139 140 143 0
141 -142 144 0
-141 -142 -144 0
141 142 -144 0
-141 142 144 0
143 144 0
-143 -144 0
2 -5 145 0
-2 -5 -145 0
2 5 -145 0
-2 5 145 0
6 -7 146 0
-6 -7 -146 0
6 7 -146 0
-6 7 146 0
10 11 147 0
-10 11 -147 0
10 -11 -147 0
-10 -11 147 0
12 -13 148 0
-12 -13 -148 0
12 13 -148 0
-12 13 148 0
14 17 149 0
-14 17 -149 0
14 -17 -149 0
-14 -17 149 0
-18 -23 150 0
18 -23 -150 0
-18 23 -150 0
18 23 150 0
25 27 151 0
-25 27 -151 0
25 -27 -151 0
-25 -27 151 0
30 32 152 0
-30 32 -152 0
30 -32 -152 0
-30 -32 152 0
36 -37 153 0
-36 -37 -153 0
36 37 -153 0
-36 37 153 0
38 -39 154 0
-38 -39 -154 0
38 39 -154 0
-38 39 154 0
42 43 155 0
-42 43 -155 0
42 -43 -155 0
-42 -43 155 0
-47 48 156 0
47 48 -156 0
-47 -48 -156 0
47 -48 156 0
144 -145 157 0
-144 -145 -157 0
144 145 -157 0
-144 145 157 0
146 -147 158 0
-146 -147 -158 0
146 147 -158 0
-146 147 158 0
148 -149 159 0
-148 -149 -159 0
148 149 -159 0
-148 149 159 0
150 -151 160 0
-150 -151 -160 0
150 151 -160 0
-150 151 160 0
152 -153 161 0
-152 -153 -161 0
152 153 -161 0
-152 153 161 0
154 -155 162 0
-154 -155 -162 0
154 155 -162 0
-154 155 162 0
156 -157 163 0
-156 -157 -163 0
156 157 -163 0
-156 157 163 0
158 -159 164 0
-158 -159 -164 0
158 159 -164 0
-158 159 164 0
160 -161 165 0
-160 -161 -165 0
160 161 -165 0
-160 161 165 0
162 -163 166 0
-162 -163 -166 0
162 163 -166 0
-162 163 166 0
164 -165 167 0
-164 -165 -167 0
164 165 -167 0
-164 165 167 0
166 167 0
-166 -167 0
5 -7 168 0
-5 -7 -168 0
5 7 -168 0
-5 7 168 0
9 10 169 0
-9 10 -169 0
9 -10 -169 0
-9 -10 169 0
-15 16 170 0
15 16 -170 0
-15 -16 -170 0
15 -16 170 0
-17 18 171 0
17 18 -171 0
-17 -18 -171 0
17 -18 171 0
20 -21 172 0
-20 -21 -172 0
20 21 -172 0
-20 21 172 0
23 27 173 0
-23 27 -173 0
23 -27 -173 0
-23 -27 173 0
-28 -29 174 0
28 -29 -174 0
-28 29 -174 0
28 29 174 0
-30 31 175 0
30 31 -175 0
-30 -31 -175 0
30 -31 175 0
-35 -36 176 0
35 -36 -176 0
-35 36 -176 0
35 36 176 0
-38 40 177 0
38 40 -177 0
-38 -40 -177 0
38 -40 177 0
-41 -43 178 0
41 -43 -178 0
-41 43 -178 0
41 43 178 0
-44 47 179 0
44 47 -179 0
-44 -47 -179 0
44 -47 179 0
-48 -50 180 0
48 -50 -180 0
-48 50 -180 0
48 50 180 0
168 -169 181 0
-168 -169 -181 0
168 169 -181 0
-168 169 181 0
170 -171 182 0
-170 -171 -182 0
170 171 -182 0
-170 171 182 0
172 -173 183 0
-172 -173 -183 0
172 173 -183 0
-172 173 183 0
174 -175 184 0
-174 -175 -184 0
174 175 -184 0
-174 175 184 0
176 -177 185 0
-176 -177 -185 0
176 177 -185 0
-176 177 185 0
178 -179 186 0
-178 -179 -186 0
178 179 -186 0
-178 179 186 0
180 -181 187 0
-180 -181 -187 0
180 181 -187 0
-180 181 187 0
182 -183 188 0
-182 -183 -188 0
182 183 -188 0
-182 183 188 0
184 -185 189 0
-184 -185 -189 0
184 185 -189 0
-184 185 189 0
186 -187 190 0
-186 -187 -190 0
186 187 -190 0
-186 187 190 0
188 -189 191 0
-188 -189 -191 0
188 189 -191 0
-188 189 191 0
190 191 0
-190 -191 0
-2 -3 192 0
2 -3 -192 0
-2 3 -192 0
2 3 192 0
-4 5 193 0
4 5 -193 0
-4 -5 -193 0
4 -5 193 0
-6 -8 194 0
6 -8 -194 0
-6 8 -194 0
6 8 194 0
-9 -10 195 0
9 -10 -195 0
-9 10 -195 0
9 10 195 0
13 16 196 0
-13 16 -196 0
13 -16 -196 0
-13 -16 196 0
-18 -20 197 0
18 -20 -197 0
-18 20 -197 0
18 20 197 0
24 27 198 0
-24 27 -198 0
24 -27 -198 0
-24 -27 198 0
-28 30 199 0
28 30 -199 0
-28 -30 -199 0
28 -30 199 0
31 -32 200 0
-31 -32 -200 0
31 32 -200 0
-31 32 200 0
34 -36 201 0
-34 -36 -201 0
34 36 -201 0
-34 36 201 0
37 38 202 0
-37 38 -202 0
37 -38 -202 0
-37 -38 202 0
39 40 203 0
-39 40 -203 0
39 -40 -203 0
-39 -40 203 0
-44 -46 204 0
44 -46 -204 0
-44 46 -204 0
44 46 204 0
-47 48 205 0
47 48 -205 0
-47 -48 -205 0
47 -48 205 0
192 -193 206 0
-192 -193 -206 0
192 193 -206 0
-192 193 206 0
194 -195 207 0
-194 -195 -207 0
194 195 -207 0
-194 195 207 0
196 -197 208 0
-196 -197 -208 0
196 197 -208 0
-196 197 208 0
198 -199 209 0
-198 -199 -209 0
198 199 -209 0
-198 199 209 0
200 -201 210 0
-200 -201 -210 0
200 201 -210 0
-200 201 210 0
202 -203 211 0
-202 -203 -211 0
202 203 -211 0
-202 203 211 0
204 -205 212 0
-204 -205 -212 0
204 205 -212 0
-204 205 212 0
206 -207 213 0
-206 -207 -213 0
206 207 -213 0
-206 207 213 0
208 -209 214 0
-208 -209 -214 0
208 209 -214 0
-208 209 214 0
210 -211 215 0
-210 -211 -215 0
210 211 -215 0
-210 211 215 0
212 -213 216 0
-212 -213 -216 0
212 213 -216 0
-212 213 216 0
214 -215 217 0
-214 -215 -217 0
214 215 -217 0
-214 215 217 0
216 217 0
-216 -217 0
-2 5 218 0
2 5 -218 0
-2 -5 -218 0
2 -5 218 0
7 -10 219 0
-7 -10 -219 0
7 10 -219 0
-7 10 219 0
11 -12 220 0
-11 -12 -220 0
11 12 -220 0
-11 12 220 0
-13 -16 221 0
13 -16 -221 0
-13 16 -221 0
13 16 221 0
18 -19 222 0
-18 -19 -222 0
18 19 -222 0
-18 19 222 0
-24 26 223 0
24 26 -223 0
-24 -26 -223 0
24 -26 223 0
28 31 224 0
-28 31 -224 0
28 -31 -224 0
-28 -31 224 0
-32 -33 225 0
32 -33 -225 0
-32 33 -225 0
32 33 225 0
37 39 226 0
-37 39 -226 0
37 -39 -226 0
-37 -39 226 0
40 -41 227 0
-40 -41 -227 0
40 41 -227 0
-40 41 227 0
-45 46 228 0
45 46 -228 0
-45 -46 -228 0
45 -46 228 0
-47 48 229 0
47 48 -229 0
-47 -48 -229 0
47 -48 229 0
217 -218 230 0
-217 -218 -230 0
217 218 -230 0
-217 218 230 0
219 -220 231 0
-219 -220 -231 0
219 220 -231 0
-219 220 231 0
221 -222 232 0
-221 -222 -232 0
221 222 -232 0
-221 222 232 0
223 -224 233 0
-223 -224 -233 0
223 224 -233 0
-223 224 233 0
225 -226 234 0
-225 -226 -234 0
225 226 -234 0
-225 226 234 0
227 -228 235 0
-227 -228 -235 0
227 228 -235 0
-227 228 235 0
229 -230 236 0
-229 -230 -236 0
229 230 -236 0
-229 230 236 0
231 -232 237 0
-231 -232 -237 0
231 232 -237 0
-231 232 237 0
233 -234 238 0
-233 -234 -238 0
233 234 -238 0
-233 234 238 0
235 -236 239 0
-235 -236 -239 0
235 236 -239 0
-235 236 239 0
237 -238 240 0
-237 -238 -240 0
237 238 -240 0
-237 238 240 0
239 240 0
-239 -240 0
1 -2 241 0
-1 -2 -241 0
1 2 -241 0
-1 2 241 0
6 9 242 0
-6 9 -242 0
6 -9 -242 0
-6 -9 242 0
12 -13 243 0
-12 -13 -243 0
12 13 -243 0
-12 13 243 0
15 -19 244 0
-15 -19 -244 0
15 19 -244 0
-15 19 244 0
-21 23 245 0
21 23 -245 0
-21 -23 -245 0
21 -23 245 0
24 26 246 0
-24 26 -246 0
24 -26 -246 0
-24 -26 246 0
27 29 247 0
-27 29 -247 0
27 -29 -247 0
-27 -29 247 0
31 -32 248 0
-31 -32 -248 0
31 32 -248 0
-31 32 248 0
-33 34 249 0
33 34 -249 0
-33 -34 -249 0
33 -34 249 0
37 39 250 0
-37 39 -250 0
37 -39 -250 0
-37 -39 250 0
43 -44 251 0
-43 -44 -251 0
43 44 -251 0
-43 44 251 0
-45 -46 252 0
45 -46 -252 0
-45 46 -252 0
45 46 252 0
240 -241 253 0
-240 -241 -253 0
240 241 -253 0
-240 241 253 0
242 -243 254 0
-242 -243 -254 0
242 243 -254 0
-242 243 254 0
244 -245 255 0
-244 -245 -255 0
244 245 -255 0
-244 245 255 0
246 -247 256 0
-246 -247 -256 0
246 247 -256 0
-246 247 256 0
248 -249 257 0
-248 -249 -257 0
248 249 -257 0
-248 249 257 0
250 -251 258 0
-250 -251 -258 0
250 251 -258 0
-250 251 258 0
252 -253 259 0
-252 -253 -259 0
252 253 -259 0
-252 253 259 0
254 -255 260 0
-254 -255 -260 0
254 255 -260 0
-254 255 260 0
256 -257 261 0
-256 -257 -261 0
256 257 -261 0
-256 257 261 0
258 -259 262 0
-258 -259 -262 0
258 259 -262 0
-258 259 262 0
260 -261 263 0
-260 -261 -263 0
260 261 -263 0
-260 261 263 0
262 263 0
-262 -263 0
-3 -4 264 0
3 -4 -264 0
-3 4 -264 0
3 4 264 0
5 8 265 0
-5 8 -265 0
5 -8 -265 0
-5 -8 265 0
-11 14 266 0
11 14 -266 0
-11 -14 -266 0
11 -14 266 0
-16 -21 267 0
16 -21 -267 0
-16 21 -267 0
16 21 267 0
-23 24 268 0
23 24 -268 0
-23 -24 -268 0
23 -24 268 0
-26 -27 269 0
26 -27 -269 0
-26 27 -269 0
26 27 269 0
-29 -31 270 0
29 -31 -270 0
-29 31 -270 0
29 31 270 0
-34 35 271 0
34 35 -271 0
-34 -35 -271 0
34 -35 271 0
-39 41 272 0
39 41 -272 0
-39 -41 -272 0
39 -41 272 0
47 48 273 0
-47 48 -273 0
47 -48 -273 0
-47 -48 273 0
263 -264 274 0
-263 -264 -274 0
263 264 -274 0
-263 264 274 0
265 -266 275 0
-265 -266 -275 0
265 266 -275 0
-265 266 275 0
267 -268 276 0
-267 -268 -276 0
267 268 -276 0
-267 268 276 0
269 -270 277 0
-269 -270 -277 0
269 270 -277 0
-269 270 277 0
271 -272 278 0
-271 -272 -278 0
271 272 -278 0
-271 272 278 0
273 -274 279 0
-273 -274 -279 0
273 274 -279 0
-273 274 279 0
275 -276 280 0
-275 -276 -280 0
275 276 -280 0
-275 276 280 0
277 -278 281 0
-277 -278 -281 0
277 278 -281 0
-277 278 281 0
-279 -280 281 0
279 -280 -281 0
-279 280 -281 0
279 280 281 0
1 -2 282 0
-1 -2 -282 0
1 2 -282 0
-1 2 282 0
-3 -4 283 0
3 -4 -283 0
-3 4 -283 0
3 4 283 0
6 -7 284 0
-6 -7 -284 0
6 7 -284 0
-6 7 284 0
8 -9 285 0
-8 -9 -285 0
8 9 -285 0
-8 9 285 0
12 -13 286 0
-12 -13 -286 0
12 13 -286 0
-12 13 286 0
18 19 287 0
-18 19 -287 0
18 -19 -287 0
-18 -19 287 0
-24 -28 288 0
24 -28 -288 0
-24 28 -288 0
24 28 288 0
-30 -38 289 0
30 -38 -289 0
-30 38 -289 0
30 38 289 0
39 -42 290 0
-39 -42 -290 0
39 42 -290 0
-39 42 290 0
43 -44 291 0
-43 -44 -291 0
43 44 -291 0
-43 44 291 0
-45 46 292 0
45 46 -292 0
-45 -46 -292 0
45 -46 292 0
-47 50 293 0
47 50 -293 0
-47 -50 -293 0
47 -50 293 0
282 -283 294 0
-282 -283 -294 0
282 283 -294 0
-282 283 294 0
284 -285 295 0
-284 -285 -295 0
284 285 -295 0
-284 285 295 0
286 -287 296 0
-286 -287 -296 0
286 287 -296 0
-286 287 296 0
288 -289 297 0
-288 -289 -297 0
288 289 -297 0
-288 289 297 0
290 -291 298 0
-290 -291 -298 0
290 291 -298 0
-290 291 298 0
292 -293 299 0
-292 -293 -299 0
292 293 -299 0
-292 293 299 0
294 -295 300 0
-294 -295 -300 0
294 295 -300 0
-294 295 300 0
296 -297 301 0
-296 -297 -301 0
296 297 -301 0
-296 297 301 0
298 -299 302 0
-298 -299 -302 0
298 299 -302 0
-298 299 302 0
-300 -301 302 0
300 -301 -302 0
-300 301 -302 0
300 301 302 0
-1 2 303 0
1 2 -303 0
-1 -2 -303 0
1 -2 303 0
-3 6 304 0
3 6 -304 0
-3 -6 -304 0
3 -6 304 0
8 -10 305 0
-8 -10 -305 0
8 10 -305 0
-8 10 305 0
-11 12 306 0
11 12 -306 0
-11 -12 -306 0
11 -12 306 0
-13 -14 307 0
13 -14 -307 0
-13 14 -307 0
13 14 307 0
-15 -16 308 0
15 -16 -308 0
-15 16 -308 0
15 16 308 0
17 -21 309 0
-17 -21 -309 0
17 21 -309 0
-17 21 309 0
24 25 310 0
-24 25 -310 0
24 -25 -310 0
-24 -25 310 0
27 29 311 0
-27 29 -311 0
27 -29 -311 0
-27 -29 311 0
31 -34 312 0
-31 -34 -312 0
31 34 -312 0
-31 34 312 0
35 36 313 0
-35 36 -313 0
35 -36 -313 0
-35 -36 313 0
-37 -38 314 0
37 -38 -314 0
-37 38 -314 0
37 38 314 0
40 43 315 0
-40 43 -315 0
40 -43 -315 0
-40 -43 315 0
44 50 316 0
-44 50 -316 0
44 -50 -316 0
-44 -50 316 0
303 -304 317 0
-303 -304 -317 0
303 304 -317 0
-303 304 317 0
305 -306 318 0
-305 -306 -318 0
305 306 -318 0
-305 306 318 0
307 -308 319 0
-307 -308 -319 0
307 308 -319 0
-307 308 319 0
309 -310 320 0
-309 -310 -320 0
309 310 -320 0
-309 310 320 0
311 -312 321 0
-311 -312 -321 0
311 312 -321 0
-311 312 321 0
313 -314 322 0
-313 -314 -322 0
313 314 -322 0
-313 314 322 0
315 -316 323 0
-315 -316 -323 0
315 316 -323 0
-315 316 323 0
317 -318 324 0
-317 -318 -324 0
317 318 -324 0
-317 318 324 0
319 -320 325 0
-319 -320 -325 0
319 320 -325 0
-319 320 325 0
321 -322 326 0
-321 -322 -326 0
321 322 -326 0
-321 322 326 0
323 -324 327 0
-323 -324 -327 0
323 324 -327 0
-323 324 327 0
325 -326 328 0
-325 -326 -328 0
325 326 -328 0
-325 326 328 0
327 328 0
-327 -328 0
-1 9 329 0
1 9 -329 0
-1 -9 -329 0
1 -9 329 0
10 11 330 0
-10 11 -330 0
10 -11 -330 0
-10 -11 330 0
12 -13 331 0
-12 -13 -331 0
12 13 -331 0
-12 13 331 0
-14 15 332 0
14 15 -332 0
-14 -15 -332 0
14 -15 332 0
-16 18 333 0
16 18 -333 0
-16 -18 -333 0
16 -18 333 0
-21 22 334 0
21 22 -334 0
-21 -22 -334 0
21 -22 334 0
-24 -26 335 0
24 -26 -335 0
-24 26 -335 0
24 26 335 0
28 -29 336 0
-28 -29 -336 0
28 29 -336 0
-28 29 336 0
-30 31 337 0
30 31 -337 0
-30 -31 -337 0
30 -31 337 0
-32 35 338 0
32 35 -338 0
-32 -35 -338 0
32 -35 338 0
-39 -40 339 0
39 -40 -339 0
-39 40 -339 0
39 40 339 0
44 46 340 0
-44 46 -340 0
44 -46 -340 0
-44 -46 340 0
329 -330 341 0
-329 -330 -341 0
329 330 -341 0
-329 330 341 0
331 -332 342 0
-331 -332 -342 0
331 332 -342 0
-331 332 342 0
333 -334 343 0
-333 -334 -343 0
333 334 -343 0
-333 334 343 0
335 -336 344 0
-335 -336 -344 0
335 336 -344 0
-335 336 344 0
337 -338 345 0
-337 -338 -345 0
337 338 -345 0
-337 338 345 0
339 -340 346 0
-339 -340 -346 0
339 340 -346 0
-339 340 346 0
341 -342 347 0
-341 -342 -347 0
341 342 -347 0
-341 342 347 0
343 -344 348 0
-343 -344 -348 0
343 344 -348 0
-343 344 348 0
345 -346 349 0
-345 -346 -349 0
345 346 -349 0
-345 346 349 0
-347 -348 349 0
347 -348 -349 0
-347 348 -349 0
347 348 349 0
2 3 350 0
-2 3 -350 0
2 -3 -350 0
-2 -3 350 0
-6 7 351 0
6 7 -351 0
-6 -7 -351 0
6 -7 351 0
8 -9 352 0
-8 -9 -352 0
8 9 -352 0
-8 9 352 0
-12 -13 353 0
12 -13 -353 0
-12 13 -353 0
12 13 353 0
14 18 354 0
-14 18 -354 0
14 -18 -354 0
-14 -18 354 0
19 -23 355 0
-19 -23 -355 0
19 23 -355 0
-19 23 355 0
24 27 356 0
-24 27 -356 0
24 -27 -356 0
-24 -27 356 0
28 29 357 0
-28 29 -357 0
28 -29 -357 0
-28 -29 357 0
31 -32 358 0
-31 -32 -358 0
31 32 -358 0
-31 32 358 0
-35 36 359 0
35 36 -359 0
-35 -36 -359 0
35 -36 359 0
38 -39 360 0
-38 -39 -360 0
38 39 -360 0
-38 39 360 0
-40 -44 361 0
40 -44 -361 0
-40 44 -361 0
40 44 361 0
349 -350 362 0
-349 -350 -362 0
349 350 -362 0
-349 350 362 0
351 -352 363 0
-351 -352 -363 0
351 352 -363 0
-351 352 363 0
353 -354 364 0
-353 -354 -364 0
353 354 -364 0
-353 354 364 0
355 -356 365 0
-355 -356 -365 0
355 356 -365 0
-355 356 365 0
357 -358 366 0
-357 -358 -366 0
357 358 -366 0
-357 358 366 0
359 -360 367 0
-359 -360 -367 0
359 360 -367 0
-359 360 367 0
361 -362 368 0
-361 -362 -368 0
361 362 -368 0
-361 362 368 0
363 -364 369 0
-363 -364 -369 0
363 364 -369 0
-363 364 369 0
365 -366 370 0
-365 -366 -370 0
365 366 -370 0
-365 366 370 0
367 -368 371 0
-367 -368 -371 0
367 368 -371 0
-367 368 371 0
369 -370 372 0
-369 -370 -372 0
369 370 -372 0
-369 370 372 0
371 372 0
-371 -372 0
-1 2 373 0
1 2 -373 0
-1 -2 -373 0
1 -2 373 0
-3 -7 374 0
3 -7 -374 0
-3 7 -374 0
3 7 374 0
-16 19 375 0
16 19 -375 0
-16 -19 -375 0
16 -19 375 0
20 -21 376 0
-20 -21 -376 0
20 21 -376 0
-20 21 376 0
-22 -23 377 0
22 -23 -377 0
-22 23 -377 0
22 23 377 0
24 -28 378 0
-24 -28 -378 0
24 28 -378 0
-24 28 378 0
-30 -31 379 0
30 -31 -379 0
-30 31 -379 0
30 31 379 0
-34 35 380 0
34 35 -380 0
-34 -35 -380 0
34 -35 380 0
36 39 381 0
-36 39 -381 0
36 -39 -381 0
-36 -39 381 0
40 -42 382 0
-40 -42 -382 0
40 42 -382 0
-40 42 382 0
43 -45 383 0
-43 -45 -383 0
43 45 -383 0
-43 45 383 0
372 -373 384 0
-372 -373 -384 0
372 373 -384 0
-372 373 384 0
374 -375 385 0
-374 -375 -385 0
374 375 -385 0
-374 375 385 0
376 -377 386 0
-376 -377 -386 0
376 377 -386 0
-376 377 386 0
378 -379 387 0
-378 -379 -387 0
378 379 -387 0
-378 379 387 0
380 -381 388 0
-380 -381 -388 0
380 381 -388 0
-380 381 388 0
382 -383 389 0
-382 -383 -389 0
382 383 -389 0
-382 383 389 0
384 -385 390 0
-384 -385 -390 0
384 385 -390 0
-384 385 390 0
386 -387 391 0
-386 -387 -391 0
386 387 -391 0
-386 387 391 0
388 -389 392 0
-388 -389 -392 0
388 389 -392 0
-388 389 392 0
-390 -391 392 0
390 -391 -392 0
-390 391 -392 0
390 391 392 0
-1 -2 393 0
1 -2 -393 0
-1 2 -393 0
1 2 393 0
3 4 394 0
-3 4 -394 0
3 -4 -394 0
-3 -4 394 0
5 -6 395 0
-5 -6 -395 0
5 6 -395 0
-5 6 395 0
-10 -12 396 0
10 -12 -396 0
-10 12 -396 0
10 12 396 0
18 20 397 0
-18 20 -397 0
18 -20 -397 0
-18 -20 397 0
-21 22 398 0
21 22 -398 0
-21 -22 -398 0
21 -22 398 0
23 -27 399 0
-23 -27 -399 0
23 27 -399 0
-23 27 399 0
-29 -30 400 0
29 -30 -400 0
-29 30 -400 0
29 30 400 0
-33 -35 401 0
33 -35 -401 0
-33 35 -401 0
33 35 401 0
-43 44 402 0
43 44 -402 0
-43 -44 -402 0
43 -44 402 0
-48 50 403 0
48 50 -403 0
-48 -50 -403 0
48 -50 403 0
393 -394 404 0
-393 -394 -404 0
393 394 -404 0
-393 394 404 0
395 -396 405 0
-395 -396 -405 0
395 396 -405 0
-395 396 405 0
397 -398 406 0
-397 -398 -406 0
397 398 -406 0
-397 398 406 0
399 -400 407 0
-399 -400 -407 0
399 400 -407 0
-399 400 407 0
401 -402 408 0
-401 -402 -408 0
401 402 -408 0
-401 402 408 0
403 -404 409 0
-403 -404 -409 0
403 404 -409 0
-403 404 409 0
405 -406 410 0
-405 -406 -410 0
405 406 -410 0
-405 406 410 0
407 -408 411 0
-407 -408 -411 0
407 408 -411 0
-407 408 411 0
-409 -410 411 0
409 -410 -411 0
-409 410 -411 0
409 410 411 0
4 5 412 0
-4 5 -412 0
4 -5 -412 0
-4 -5 412 0
-7 8 413 0
7 8 -413 0
-7 -8 -413 0
7 -8 413 0
9 -13 414 0
-9 -13 -414 0
9 13 -414 0
-9 13 414 0
-19 -20 415 0
19 -20 -415 0
-19 20 -415 0
19 20 415 0
22 -23 416 0
-22 -23 -416 0
22 23 -416 0
-22 23 416 0
24 25 417 0
-24 25 -417 0
24 -25 -417 0
-24 -25 417 0
-27 -28 418 0
27 -28 -418 0
-27 28 -418 0
27 28 418 0
-29 30 419 0
29 30 -419 0
-29 -30 -419 0
29 -30 419 0
-32 35 420 0
32 35 -420 0
-32 -35 -420 0
32 -35 420 0
-37 38 421 0
37 38 -421 0
-37 -38 -421 0
37 -38 421 0
39 41 422 0
-39 41 -422 0
39 -41 -422 0
-39 -41 422 0
42 -45 423 0
-42 -45 -423 0
42 45 -423 0
-42 45 423 0
412 -413 424 0
-412 -413 -424 0
412 413 -424 0
-412 413 424 0
414 -415 425 0
-414 -415 -425 0
414 415 -425 0
-414 415 425 0
416 -417 426 0
-416 -417 -426 0
416 417 -426 0
-416 417 426 0
418 -419 427 0
-418 -419 -427 0
418 419 -427 0
-418 419 427 0
420 -421 428 0
-420 -421 -428 0
420 421 -428 0
-420 421 428 0
422 -423 429 0
-422 -423 -429 0
422 423 -429 0
-422 423 429 0
424 -425 430 0
-424 -425 -430 0
424 425 -430 0
-424 425 430 0
426 -427 431 0
-426 -427 -431 0
426 427 -431 0
-426 427 431 0
428 -429 432 0
-428 -429 -432 0
428 429 -432 0
-428 429 432 0
-430 -431 432 0
430 -431 -432 0
-430 431 -432 0
430 431 432 0
-1 3 433 0
1 3 -433 0
-1 -3 -433 0
1 -3 433 0
-5 -7 434 0
5 -7 -434 0
-5 7 -434 0
5 7 434 0
10 12 435 0
-10 12 -435 0
10 -12 -435 0
-10 -12 435 0
14 -19 436 0
-14 -19 -436 0
14 19 -436 0
-14 19 436 0
22 23 437 0
-22 23 -437 0
22 -23 -437 0
-22 -23 437 0
24 -26 438 0
-24 -26 -438 0
24 26 -438 0
-24 26 438 0
-32 33 439 0
32 33 -439 0
-32 -33 -439 0
32 -33 439 0
34 -35 440 0
-34 -35 -440 0
34 35 -440 0
-34 35 440 0
37 38 441 0
-37 38 -441 0
37 -38 -441 0
-37 -38 441 0
39 -40 442 0
-39 -40 -442 0
39 40 -442 0
-39 40 442 0
42 43 443 0
-42 43 -443 0
42 -43 -443 0
-42 -43 443 0
-44 46 444 0
44 46 -444 0
-44 -46 -444 0
44 -46 444 0
432 -433 445 0
-432 -433 -445 0
432 433 -445 0
-432 433 445 0
434 -435 446 0
-434 -435 -446 0
434 435 -446 0
-434 435 446 0
436 -437 447 0
-436 -437 -447 0
436 437 -447 0
-436 437 447 0
438 -439 448 0
-438 -439 -448 0
438 439 -448 0
-438 439 448 0
440 -441 449 0
-440 -441 -449 0
440 441 -449 0
-440 441 449 0
442 -443 450 0
-442 -443 -450 0
442 443 -450 0
-442 443 450 0
444 -445 451 0
-444 -445 -451 0
444 445 -451 0
-444 445 451 0
446 -447 452 0
-446 -447 -452 0
446 447 -452 0
-446 447 452 0
448 -449 453 0
-448 -449 -453 0
448 449 -453 0
-448 449 453 0
450 -451 454 0
-450 -451 -454 0
450 451 -454 0
-450 451 454 0
452 -453 455 0
-452 -453 -455 0
452 453 -455 0
-452 453 455 0
454 455 0
-454 -455 0
8 -10 456 0
-8 -10 -456 0
8 10 -456 0
-8 10 456 0
-11 12 457 0
11 12 -457 0
-11 -12 -457 0
11 -12 457 0
14 -18 458 0
-14 -18 -458 0
14 18 -458 0
-14 18 458 0
-20 -21 459 0
20 -21 -459 0
-20 21 -459 0
20 21 459 0
22 -24 460 0
-22 -24 -460 0
22 24 -460 0
-22 24 460 0
25 -26 461 0
-25 -26 -461 0
25 26 -461 0
-25 26 461 0
27 28 462 0
-27 28 -462 0
27 -28 -462 0
-27 -28 462 0
32 33 463 0
-32 33 -463 0
32 -33 -463 0
-32 -33 463 0
-34 -36 464 0
34 -36 -464 0
-34 36 -464 0
34 36 464 0
37 40 465 0
-37 40 -465 0
37 -40 -465 0
-37 -40 465 0
-41 -42 466 0
41 -42 -466 0
-41 42 -466 0
41 42 466 0
44 -45 467 0
-44 -45 -467 0
44 45 -467 0
-44 45 467 0
47 -49 468 0
-47 -49 -468 0
47 49 -468 0
-47 49 468 0
455 -456 469 0
-455 -456 -469 0
455 456 -469 0
-455 456 469 0
457 -458 470 0
-457 -458 -470 0
457 458 -470 0
-457 458 470 0
459 -460 471 0
-459 -460 -471 0
459 460 -471 0
-459 460 471 0
461 -462 472 0
-461 -462 -472 0
461 462 -472 0
-461 462 472 0
463 -464 473 0
-463 -464 -473 0
463 464 -473 0
-463 464 473 0
465 -466 474 0
-465 -466 -474 0
465 466 -474 0
-465 466 474 0
467 -468 475 0
-467 -468 -475 0
467 468 -475 0
-467 468 475 0
469 -470 476 0
-469 -470 -476 0
469 470 -476 0
-469 470 476 0
471 -472 477 0
-471 -472 -477 0
471 472 -477 0
-471 472 477 0
473 -474 478 0
-473 -474 -478 0
473 474 -478 0
-473 474 478 0
475 -476 479 0
-475 -476 -479 0
475 476 -479 0
-475 476 479 0
477 -478 480 0
-477 -478 -480 0
477 478 -480 0
-477 478 480 0
479 480 0
-479 -480 0
1 2 481 0
-1 2 -481 0
1 -2 -481 0
-1 -2 481 0
-3 -4 482 0
3 -4 -482 0
-3 4 -482 0
3 4 482 0
7 -9 483 0
-7 -9 -483 0
7 9 -483 0
-7 9 483 0
-11 14 484 0
11 14 -484 0
-11 -14 -484 0
11 -14 484 0
15 17 485 0
-15 17 -485 0
15 -17 -485 0
-15 -17 485 0
-18 -19 486 0
18 -19 -486 0
-18 19 -486 0
18 19 486 0
-21 -22 487 0
21 -22 -487 0
-21 22 -487 0
21 22 487 0
-23 26 488 0
23 26 -488 0
-23 -26 -488 0
23 -26 488 0
28 -29 489 0
-28 -29 -489 0
28 29 -489 0
-28 29 489 0
31 -33 490 0
-31 -33 -490 0
31 33 -490 0
-31 33 490 0
-36 37 491 0
36 37 -491 0
-36 -37 -491 0
36 -37 491 0
-38 40 492 0
38 40 -492 0
-38 -40 -492 0
38 -40 492 0
41 43 493 0
-41 43 -493 0
41 -43 -493 0
-41 -43 493 0
45 -47 494 0
-45 -47 -494 0
45 47 -494 0
-45 47 494 0
480 -481 495 0
-480 -481 -495 0
480 481 -495 0
-480 481 495 0
482 -483 496 0
-482 -483 -496 0
482 483 -496 0
-482 483 496 0
484 -485 497 0
-484 -485 -497 0
484 485 -497 0
-484 485 497 0
486 -487 498 0
-486 -487 -498 0
486 487 -498 0
-486 487 498 0
488 -489 499 0
-488 -489 -499 0
488 489 -499 0
-488 489 499 0
490 -491 500 0
-490 -491 -500 0
490 491 -500 0
-490 491 500 0
492 -493 501 0
-492 -493 -501 0
492 493 -501 0
-492 493 501 0
494 -495 502 0
-494 -495 -502 0
494 495 -502 0
-494 495 502 0
496 -497 503 0
-496 -497 -503 0
496 497 -503 0
-496 497 503 0
498 -499 504 0
-498 -499 -504 0
498 499 -504 0
-498 499 504 0
500 -501 505 0
-500 -501 -505 0
500 501 -505 0
-500 501 505 0
502 -503 506 0
-502 -503 -506 0
502 503 -506 0
-502 503 506 0
504 -505 507 0
-504 -505 -507 0
504 505 -507 0
-504 505 507 0
506 507 0
-506 -507 0
